g3 0 1 0	# problem d7n5R1R6d01d05
 5 6 1 0 1	# vars, constraints, objectives, ranges, eqns
 3 1	# nonlinear constraints, objectives
 0 0	# network constraints: nonlinear, linear
 5 5 5	# nonlinear vars in constraints, objectives, both
 0 0 0 1	# linear network variables; functions; arith, flags
 0 0 0 0 0	# discrete variables: binary, integer, nonlinear (b,c,o)
 27 5	# nonzeros in Jacobian, gradients
 0 0	# max name lengths: constraints, variables
 0 0 0 0 0	# common exprs: b,c,o,c1,o1
b
0 0.44 2.07
0 0.32 2.52
0 0.61 2.12
0 0.35 2.36
0 0.85 2.44
r
2 19.828
2 131.795
2 455.281
4 14.717
2 47.694
2 21.809
C0
o54
6
o2
o2
o2
n4.46
v0
v2
v3
o2
o2
o2
n3.6
v1
v2
v4
o2
o2
o2
n2.54
v1
v3
v3
o2
o2
o2
n1.73
v2
v2
v3
o16
o2
o2
o2
n7.78
v2
v4
v4
o16
o2
o2
o2
n6.39
v3
v3
v4
C1
o54
12
o2
o2
o2
n5.42
v0
v2
v3
o2
o2
o2
n2.13
v1
v2
v4
o2
o2
o2
n3.32
v1
v3
v3
o16
o2
o2
o2
n9.46
v2
v2
v3
o2
o2
o2
n5.36
v2
v4
v4
o2
o2
o2
n3.26
v3
v3
v4
o2
o2
o2
o2
n5.37
v0
v0
v0
v0
o2
o2
o2
o2
n2.46
v0
v0
v0
v1
o2
o2
o2
o2
n2.73
v0
v2
v2
v2
o2
o2
o2
o2
n3.49
v0
v2
v2
v3
o2
o2
o2
o2
n3.49
v1
v1
v2
v3
o2
o2
o2
o2
n2.78
v1
v4
v4
v4
C2
o54
27
o16
o2
o2
o2
n4.13
v0
v2
v3
o2
o2
o2
n5.48
v1
v2
v4
o2
o2
o2
n7.18
v1
v3
v3
o2
o2
o2
n5.52
v2
v2
v3
o2
o2
o2
n1.79
v2
v4
v4
o2
o2
o2
n1.66
v3
v3
v4
o2
o2
o2
o2
n5.35
v0
v0
v0
v0
o2
o2
o2
o2
n0.59
v0
v0
v0
v1
o16
o2
o2
o2
o2
n1.27
v0
v2
v2
v2
o16
o2
o2
o2
o2
n2.38
v0
v2
v2
v3
o2
o2
o2
o2
n3.49
v1
v1
v2
v3
o2
o2
o2
o2
n3.21
v1
v4
v4
v4
o2
o2
o2
o2
o2
n3.88
v0
v0
v0
v4
v4
o2
o2
o2
o2
o2
n4.38
v0
v0
v1
v1
v4
o2
o2
o2
o2
o2
n5.31
v0
v0
v1
v4
v4
o16
o2
o2
o2
o2
o2
n2.74
v0
v0
v3
v3
v4
o2
o2
o2
o2
o2
n8.31
v0
v1
v1
v3
v4
o2
o2
o2
o2
o2
n2.98
v0
v1
v3
v4
v4
o2
o2
o2
o2
o2
n4.06
v1
v1
v2
v2
v4
o2
o2
o2
o2
o2
n7.02
v1
v1
v2
v4
v4
o2
o2
o2
o2
o2
n1.55
v1
v2
v2
v2
v4
o2
o2
o2
o2
o2
n0.87
v1
v2
v2
v3
v4
o16
o2
o2
o2
o2
o2
n1.65
v2
v2
v2
v2
v2
o2
o2
o2
o2
o2
n4.2
v2
v2
v3
v3
v4
o2
o2
o2
o2
o2
n6.11
v3
v3
v3
v3
v3
o2
o2
o2
o2
o2
n3.08
v3
v4
v4
v4
v4
o2
o2
o2
o2
o2
n3.99
v4
v4
v4
v4
v4
C3
n0
C4
n0
C5
n0
O0 0
o54
79
o2
o2
o2
n4.95
v0
v2
v3
o2
o2
o2
n4.73
v1
v2
v4
o16
o2
o2
o2
n5.61
v1
v3
v3
o2
o2
o2
n3.32
v2
v2
v3
o16
o2
o2
o2
n8.8
v2
v4
v4
o2
o2
o2
n8.74
v3
v3
v4
o2
o2
o2
o2
n7.01
v0
v0
v0
v0
o2
o2
o2
o2
n6.87
v0
v0
v0
v1
o2
o2
o2
o2
n3.79
v0
v2
v2
v2
o2
o2
o2
o2
n5.8
v0
v2
v2
v3
o2
o2
o2
o2
n6.48
v1
v1
v2
v3
o16
o2
o2
o2
o2
n2.67
v1
v4
v4
v4
o2
o2
o2
o2
o2
n0.36
v0
v0
v0
v4
v4
o2
o2
o2
o2
o2
n4.09
v0
v0
v1
v1
v4
o2
o2
o2
o2
o2
n4.76
v0
v0
v1
v4
v4
o16
o2
o2
o2
o2
o2
n2.85
v0
v0
v3
v3
v4
o2
o2
o2
o2
o2
n6.14
v0
v1
v1
v3
v4
o2
o2
o2
o2
o2
n8.84
v0
v1
v3
v4
v4
o2
o2
o2
o2
o2
n8.72
v1
v1
v2
v2
v4
o2
o2
o2
o2
o2
n6.92
v1
v1
v2
v4
v4
o16
o2
o2
o2
o2
o2
n7.83
v1
v2
v2
v2
v4
o2
o2
o2
o2
o2
n9.58
v1
v2
v2
v3
v4
o2
o2
o2
o2
o2
n6.33
v2
v2
v2
v2
v2
o16
o2
o2
o2
o2
o2
n7.16
v2
v2
v3
v3
v4
o2
o2
o2
o2
o2
n9.4
v3
v3
v3
v3
v3
o2
o2
o2
o2
o2
n3.59
v3
v4
v4
v4
v4
o16
o2
o2
o2
o2
o2
n8.02
v4
v4
v4
v4
v4
o2
o2
o2
o2
o2
o2
n0.19
v0
v0
v1
v1
v2
v2
o2
o2
o2
o2
o2
o2
n6.47
v0
v1
v1
v2
v2
v3
o2
o2
o2
o2
o2
o2
n5.67
v0
v1
v1
v3
v3
v3
o2
o2
o2
o2
o2
o2
n4.15
v0
v1
v3
v3
v4
v4
o2
o2
o2
o2
o2
o2
n4.84
v0
v3
v3
v3
v3
v4
o16
o2
o2
o2
o2
o2
o2
n7
v0
v4
v4
v4
v4
v4
o2
o2
o2
o2
o2
o2
n4.08
v1
v1
v2
v2
v2
v2
o2
o2
o2
o2
o2
o2
n8.88
v1
v2
v2
v2
v3
v3
o2
o2
o2
o2
o2
o2
n6.23
v1
v3
v3
v3
v3
v4
o16
o2
o2
o2
o2
o2
o2
n8.2
v1
v4
v4
v4
v4
v4
o2
o2
o2
o2
o2
o2
n2.79
v2
v2
v2
v2
v2
v4
o2
o2
o2
o2
o2
o2
n0.13
v2
v2
v2
v4
v4
v4
o2
o2
o2
o2
o2
o2
n6.16
v2
v2
v3
v3
v3
v4
o2
o2
o2
o2
o2
o2
n9.67
v2
v2
v4
v4
v4
v4
o2
o2
o2
o2
o2
o2
n9.93
v2
v3
v3
v4
v4
v4
o2
o2
o2
o2
o2
o2
n5.92
v3
v3
v4
v4
v4
v4
o2
o2
o2
o2
o2
o2
o2
n9.68
v0
v0
v0
v0
v1
v1
v1
o16
o2
o2
o2
o2
o2
o2
o2
n2.85
v0
v0
v0
v0
v1
v2
v4
o16
o2
o2
o2
o2
o2
o2
o2
n2.54
v0
v0
v0
v0
v2
v2
v3
o2
o2
o2
o2
o2
o2
o2
n6.89
v0
v0
v0
v1
v2
v2
v3
o2
o2
o2
o2
o2
o2
o2
n7.94
v0
v0
v0
v1
v4
v4
v4
o2
o2
o2
o2
o2
o2
o2
n6.66
v0
v0
v1
v1
v1
v2
v4
o2
o2
o2
o2
o2
o2
o2
n7.55
v0
v0
v1
v1
v1
v3
v4
o2
o2
o2
o2
o2
o2
o2
n5.1
v0
v0
v1
v1
v2
v2
v4
o2
o2
o2
o2
o2
o2
o2
n7.3
v0
v0
v1
v2
v2
v3
v4
o2
o2
o2
o2
o2
o2
o2
n9.41
v0
v0
v1
v2
v3
v4
v4
o2
o2
o2
o2
o2
o2
o2
n8.99
v0
v0
v2
v2
v4
v4
v4
o2
o2
o2
o2
o2
o2
o2
n9.04
v0
v0
v2
v3
v3
v4
v4
o2
o2
o2
o2
o2
o2
o2
n4.7
v0
v0
v3
v3
v3
v3
v4
o2
o2
o2
o2
o2
o2
o2
n7
v0
v0
v3
v4
v4
v4
v4
o2
o2
o2
o2
o2
o2
o2
n1.46
v0
v0
v4
v4
v4
v4
v4
o2
o2
o2
o2
o2
o2
o2
n4.97
v0
v1
v1
v1
v2
v4
v4
o2
o2
o2
o2
o2
o2
o2
n9.23
v0
v1
v2
v2
v2
v2
v2
o2
o2
o2
o2
o2
o2
o2
n7.29
v0
v1
v2
v2
v4
v4
v4
o2
o2
o2
o2
o2
o2
o2
n9.87
v0
v1
v2
v3
v4
v4
v4
o2
o2
o2
o2
o2
o2
o2
n4.4
v0
v1
v3
v3
v3
v3
v3
o2
o2
o2
o2
o2
o2
o2
n10
v0
v1
v4
v4
v4
v4
v4
o2
o2
o2
o2
o2
o2
o2
n0.79
v0
v2
v2
v2
v2
v4
v4
o2
o2
o2
o2
o2
o2
o2
n5.44
v0
v2
v2
v2
v3
v4
v4
o2
o2
o2
o2
o2
o2
o2
n7.94
v0
v2
v3
v4
v4
v4
v4
o2
o2
o2
o2
o2
o2
o2
n0.24
v0
v3
v3
v3
v3
v3
v4
o2
o2
o2
o2
o2
o2
o2
n7.55
v1
v1
v1
v1
v1
v2
v4
o2
o2
o2
o2
o2
o2
o2
n7.88
v1
v1
v2
v2
v2
v2
v4
o2
o2
o2
o2
o2
o2
o2
n5.28
v1
v2
v2
v2
v2
v4
v4
o2
o2
o2
o2
o2
o2
o2
n7.65
v1
v2
v3
v4
v4
v4
v4
o2
o2
o2
o2
o2
o2
o2
n0.37
v2
v2
v2
v2
v2
v3
v3
o2
o2
o2
o2
o2
o2
o2
n3.89
v2
v2
v2
v2
v2
v3
v4
o2
o2
o2
o2
o2
o2
o2
n1.52
v2
v2
v2
v2
v2
v4
v4
o2
o2
o2
o2
o2
o2
o2
n0.98
v2
v2
v2
v3
v4
v4
v4
o2
o2
o2
o2
o2
o2
o2
n4.16
v2
v2
v3
v4
v4
v4
v4
o2
o2
o2
o2
o2
o2
o2
n1.88
v2
v2
v4
v4
v4
v4
v4
o2
o2
o2
o2
o2
o2
o2
n9.69
v2
v3
v3
v3
v3
v3
v4
k4
6
12
17
22
J0 5
0 4.38
1 1.85
2 7.29
3 2.75
4 8.05
J1 5
0 6.64
1 3.89
2 9.57
3 0.32
4 0.04
J2 5
0 4.78
1 9.55
2 3.09
3 -1.96
4 1.34
J3 2
0 2.98
1 7.73
J4 5
0 9.54
1 9.24
2 5.26
3 8.2
4 2.62
J5 5
0 3.96
1 5.3
2 1.98
3 3.47
4 1.16
G0 5
0 3.1
1 3.3
2 1.72
3 8.86
4 8.19
